c preprocessed version of FosterGraph, 90 vertices, 135 edges
p td 90 135
0 1
0 9
0 88
1 12
1 81
2 3
2 11
3 4
3 83
4 5
4 22
5 6
6 7
6 47
7 8
7 65
8 9
8 18
9 10
10 11
10 29
11 13
12 23
12 33
13 14
13 53
14 15
14 72
15 16
15 25
16 17
17 18
17 36
18 19
19 20
19 60
20 21
20 79
21 22
21 31
22 24
23 34
23 52
24 25
24 42
25 26
26 27
26 66
27 28
27 85
28 29
28 38
29 30
30 31
30 49
31 32
32 33
32 73
33 35
34 5
34 45
35 36
35 44
36 37
37 38
37 55
38 39
39 40
39 80
40 41
41 42
41 51
42 43
43 44
43 62
44 46
45 56
45 76
46 47
46 86
47 48
48 49
48 58
49 50
50 51
50 69
51 52
52 53
53 54
54 55
54 64
55 57
56 16
56 67
57 58
57 75
58 59
59 60
60 61
61 62
61 71
62 63
63 64
63 82
64 65
65 66
66 68
67 78
67 87
68 69
68 77
69 70
70 71
70 88
71 72
72 73
73 74
74 75
74 84
75 76
76 77
77 79
78 40
78 89
79 80
80 81
81 82
82 83
83 84
84 85
85 86
86 87
87 88
89 2
89 59
